!xtb2 freq tightscf  
%pal nprocs 1 end
%maxcore 1000
*xyz 0 1 
H 0 0 0
H 0 0 1 
end

